EjemplosPL/data/estanteria.txt
15.0,2.5
20.0,1.5
16.5,0.3
16.0,1.2
17.5,0.3
18.0,3.0
10.0,4.0
11.5,0.6
12.0,4.5
17.0,1.0
#
15.00
18.00
#
7.00